NAME: tsp15_5
COMMENT: 15-tsp problem (Padberg/Rinaldi)
TYPE: TSP
DIMENSION: 15
EDGE_WEIGHT_TYPE : EUC_2D
NODE_COORD_SECTION
1 16 36
2 6 5
3 10 37
4 11 38
5 14 3
6 33 23
7 35 36
8 11 14
9 38 3
10 6 24
11 40 5
12 20 33
13 15 11
14 27 36
15 39 14
